(declare-fun $prop4$4 () Bool)
(declare-fun $state$4 () Int)
(declare-fun $prop_all$4 () Bool)
(declare-fun $bias$4 () Int)
(declare-fun $prop3$4 () Bool)
(declare-fun $prop2$4 () Bool)
(declare-fun $state$1 () Int)
(declare-fun $prop1$4 () Bool)
(declare-fun $bias_max$4 () Bool)
(declare-fun $bias_max$1 () Bool)
(declare-fun $bias$1 () Int)
(declare-fun $x$2 () Bool)

(assert (let ((a!1 (and (or (and $x$2 (= $bias$1 (- 1))) (and (not $x$2) (= $bias$1 1)))
                (not $bias_max$1)
                (or (not (= $state$1 0)) (not $x$2))
                (or (not (= $state$1 0)) $x$2)))
      (a!2 (= $bias_max$4 (or $bias_max$1 (>= 0 2) (<= 0 (- 0 2)))))
      (a!3 (or (not (and (= $state$1 0) $x$2)) (= 3 2)))
      (a!4 (or (not (and (= $state$1 0) (not $x$2))) (= 3 1)))
      (a!5 (and $x$2
                (or (>= $bias$1 1) (<= $bias$1 (- 3)) $bias_max$1)
                (or (not (= $state$1 0)) (not $x$2))
                (or (not (= $state$1 0)) $x$2)))
      (a!6 (= $bias_max$4
              (or $bias_max$1 (>= (+ 1 $bias$1) 2) (<= (+ 1 $bias$1) (- 0 2)))))
      (a!7 (or (= (+ 1 $bias$1) 0) (not (= 3 0))))
      (a!8 (and (not $x$2)
                (or (>= $bias$1 3) (<= $bias$1 (- 1)) $bias_max$1)
                (or (not (= $state$1 0)) (not $x$2))
                (or (not (= $state$1 0)) $x$2)))
      (a!9 (= $bias_max$4
              (or $bias_max$1
                  (>= (+ (- 1) $bias$1) 2)
                  (<= (+ (- 1) $bias$1) (- 0 2)))))
      (a!10 (or (not (= 3 0)) (= (+ (- 1) $bias$1) 0))))
(let ((a!11 (ite a!8
                 (and (= $bias$4 (+ (- 1) $bias$1))
                      a!9
                      (= $prop1$4 a!10)
                      (= $state$4 3)
                      (= $prop2$4 a!3)
                      (= $prop3$4 a!4)
                      (= $prop4$4 true)
                      (= $prop_all$4 (and true a!4 a!3 a!10)))
                 true)))
(let ((a!12 (ite a!5
                 (and (= $bias$4 (+ 1 $bias$1))
                      a!6
                      (= $prop1$4 a!7)
                      (= $state$4 3)
                      (= $prop2$4 a!3)
                      (= $prop3$4 a!4)
                      (= $prop4$4 true)
                      (= $prop_all$4 (and true a!4 a!3 a!7)))
                 a!11)))
  (ite a!1
       (and (= $bias$4 0)
            a!2
            (= $prop1$4 true)
            (= $state$4 3)
            (= $prop2$4 a!3)
            (= $prop3$4 a!4)
            (= $prop4$4 true)
            (= $prop_all$4 (and true a!4 true a!3)))
       a!12)))))
(check-sat)
